letting n_nurses=25
letting n_days=7
letting n_shift_types=4
letting max_covers=9
letting t_covers=35
letting covers=[9,2,2,0,2,1,0,0,0,0,0,0,1,1,0,0,5,2,0,0,1,1,0,0,5,3,0,0]
letting prefes=[4,4,1,4,1,1,1,1,1,4,4,1,2,4,2,2,2,2,1,2,1,1,1,4,1,1,1,1,1,4,1,4,4,1,1,4,1,1,4,4,2,1,2,2,1,1,1,1,1,1,1,4,4,1,1,4,1,4,1,4,4,4,1,4,1,1,1,1,2,1,2,2,1,1,1,1,1,1,1,4,4,4,1,4,1,4,1,4,4,4,4,4,4,4,4,4,2,1,2,2,2,1,1,2,1,1,4,1,4,4,4,4,4,4,1,4,4,1,1,4,1,4,1,4,1,1,1,1,1,1,1,1,1,1,1,1,4,1,1,4,1,1,1,1,4,4,4,4,4,4,4,4,2,1,2,2,2,1,2,2,4,4,4,4,4,4,4,4,1,4,1,4,1,1,1,1,1,4,4,1,2,1,2,2,2,1,2,2,1,1,1,4,1,1,1,1,1,4,1,4,4,1,1,4,1,4,4,4,2,4,2,2,2,1,2,2,1,1,1,4,4,1,1,4,1,1,1,1,4,1,1,4,1,1,4,4,1,1,1,1,2,1,1,2,1,1,1,4,4,1,1,4,4,4,4,4,4,4,1,4,4,4,4,4,2,1,2,2,2,2,2,2,1,1,1,4,4,4,1,4,1,4,1,4,4,1,1,4,4,4,4,4,2,1,2,2,1,1,1,1,1,1,1,4,4,1,1,4,1,4,1,4,4,1,1,4,1,4,4,4,2,2,2,2,2,1,1,2,1,1,1,4,4,1,1,4,1,1,1,1,4,1,1,4,1,4,1,4,2,1,2,2,2,1,1,2,4,4,1,4,4,1,1,4,1,1,1,1,4,1,1,4,1,1,4,4,2,1,2,2,2,1,1,2,1,1,1,4,4,1,1,4,4,1,1,1,4,1,1,4,1,4,1,4,2,1,2,2,2,2,1,2,1,1,1,4,4,1,1,4,1,4,1,4,4,1,1,4,4,4,4,4,2,1,2,2,1,1,1,1,4,4,1,1,4,1,1,4,1,4,1,4,4,1,1,4,1,4,1,4,2,1,2,2,2,1,1,2,1,1,1,4,4,1,1,4,1,4,4,4,4,1,4,4,1,4,4,4,1,1,1,1,2,1,1,2,4,4,4,4,4,1,4,4,1,4,1,4,1,1,1,1,1,4,4,4,1,4,1,1,2,2,1,2,1,1,1,4,1,1,1,1,1,4,4,4,4,1,1,4,1,1,4,4,2,1,2,2,2,1,1,2,1,1,1,4,4,1,1,4,1,4,1,4,1,1,1,1,1,4,4,4,1,1,1,1,2,1,2,2,1,1,1,4,1,1,1,1,4,4,4,4,4,1,4,4,1,4,4,4,2,1,2,2,2,1,1,2,4,4,4,4,4,1,4,4,1,4,4,4,4,1,1,4,1,4,4,1,2,2,2,2,2,1,1,2,1,1,1,1,4,1,1,4,1,4,1,4,1,4,4,1,1,4,4,4,2,1,2,2,2,1,1,2,1,1,4,4,1,4,4,1,1,4,1,4,4,1,1,4,1,4,4,1,2,1,2,2,2,2,1,2,1,1,1,1,4,1,1,4]
letting ub =  235
